RT is False
Default write of storage_offers_DA.csv just to have a file (but constraint should be inactive)
Reading model...
...model read.
creating competitive generators file...
...competitive generators recorded.
Loading data...
.. day-ahead data with real-time VRE data read.
Compiling instance...
...instance created.
Creating Offer Mitigation (model will solve as dispatch if TRUE)...
NOTE: storage offers will not be mitigated
...storage offer mitigation file created
Converting model to MPEC...
...converted
NOTE: initial MIP solve with only storage competitive to get feasible solution
Solving...

Welcome to IBM(R) ILOG(R) CPLEX(R) Interactive Optimizer 12.9.0.0
  with Simplex, Mixed Integer & Barrier Optimizers
5725-A06 5725-A29 5724-Y48 5724-Y49 5724-Y54 5724-Y55 5655-Y21
Copyright IBM Corp. 1988, 2019.  All Rights Reserved.

Type 'help' for a list of available commands.
Type 'help' followed by a command name for more
information on commands.

CPLEX> Logfile 'cplex.log' closed.
Logfile 'C:\Users\Luke\Desktop\test106\logs\tmpaje4tf8y.cplex.log' open.
CPLEX> New value for parallel optimization mode: -1
CPLEX> New value for mixed integer optimality gap tolerance: 0.01
CPLEX> New value for integrality tolerance: 1e-09
CPLEX> New value for feasibility tolerance: 0.01
CPLEX> New value for deterministic time limit in ticks: 100000
CPLEX> Problem 'C:\Users\Luke\Desktop\test106\logs\tmpv5itjffb.pyomo.lp' read.
Read time = 0.19 sec. (13.86 ticks)
CPLEX> Problem name         : C:\Users\Luke\Desktop\test106\logs\tmpv5itjffb.pyomo.lp
Objective sense      : Maximize
Variables            :   53321  [Nneg: 1,  Box: 21806,  Free: 4416,
                                 Binary: 27098]
Objective nonzeros   :    8980
Linear constraints   :  122164  [Less: 40983,  Greater: 58612,  Equal: 22569]
  Nonzeros           :  288505
  RHS nonzeros       :   66982

Variables            : Min LB: -5000.000        Max UB: 1000000.       
Objective nonzeros   : Min   : 0.07500000       Max   : 731.8583       
Linear constraints   :
  Nonzeros           : Min   : 0.07500000       Max   : 1000000.       
  RHS nonzeros       : Min   : 0.07500000       Max   : 1000000.       
CPLEX> CPXPARAM_Parallel                                -1
CPXPARAM_Simplex_Tolerances_Feasibility          0.01
CPXPARAM_DetTimeLimit                            100000
CPXPARAM_MIP_Tolerances_MIPGap                   0.01
CPXPARAM_MIP_Tolerances_Integrality              1.0000000000000001e-09
Tried aggregator 3 times.
MIP Presolve eliminated 88113 rows and 18969 columns.
MIP Presolve added 3376 rows and 0 columns.
MIP Presolve modified 24476 coefficients.
Aggregator did 12846 substitutions.
Reduced MIP has 24581 rows, 20950 columns, and 68870 nonzeros.
Reduced MIP has 8281 binaries, 0 generals, 0 SOSs, and 0 indicators.
Presolve time = 0.23 sec. (171.43 ticks)
Probing fixed 434 vars, tightened 2916 bounds.
Probing time = 1.73 sec. (921.94 ticks)
Tried aggregator 2 times.
MIP Presolve eliminated 967 rows and 870 columns.
MIP Presolve modified 2190 coefficients.
Aggregator did 59 substitutions.
Reduced MIP has 23555 rows, 20021 columns, and 65879 nonzeros.
Reduced MIP has 7847 binaries, 0 generals, 0 SOSs, and 0 indicators.
Presolve time = 0.09 sec. (67.02 ticks)
Probing fixed 0 vars, tightened 1 bounds.
Probing time = 0.05 sec. (19.90 ticks)
Clique table members: 6456.
MIP emphasis: balance optimality and feasibility.
MIP search method: dynamic search.
Parallel mode: opportunistic, using up to 12 threads.
Root relaxation solution time = 0.52 sec. (603.12 ticks)

        Nodes                                         Cuts/
   Node  Left     Objective  IInf  Best Integer    Best Bound    ItCnt     Gap

      0     0      -19.7208   772                    -19.7208     7202         
      0     0      -19.7208     9                     Cuts: 9     7208         
      0     0      -19.7208     9                 Flowcuts: 5     7211         
      0     0      -19.7208     7                 Flowcuts: 2     7212         
      0     2      -19.7208     7                 Impl Bds: 1     7212         
Elapsed time = 9.39 sec. (4594.97 ticks, tree = 0.02 MB, solutions = 0)
    220    55   -17360.4226     2                    -74.8411     8692         
    398   156     -376.5398     4                    -74.8411    17800         
    544   250   -64413.2874    40                    -74.8411    23919         
    658   269    infeasible                          -74.8411    24754         
    745   341     -408.2337     1                    -74.8411    25952         
    828   341    infeasible                          -74.8411    26319         
    914   370    infeasible                          -74.8411    26618         
    979   403     -408.2337     1                    -74.8411    26948         
   1047   431     -301.5501     1                    -74.8411    27239         
   1202   452    infeasible                          -74.8411    27513         
Elapsed time = 16.61 sec. (7741.73 ticks, tree = 5.18 MB, solutions = 0)
   1320   460    infeasible                          -74.8411    27610         
   1413   461    infeasible                          -74.8411    27654         
   1493   470      -76.7892     1                    -74.8411    27713         
   1574   487    infeasible                          -74.8411    27804         
   1646   500    infeasible                          -74.8411    27856         
   1717   512     -301.5501     3                    -74.8411    27894         
   1793   510    infeasible                          -74.8411    27899         
   1856   515     -410.1817     1                    -74.8411    27910         
   1915   518      -74.8411     1                    -74.8411    27927         
   1972   533    infeasible                          -74.8411    28030         
Elapsed time = 29.14 sec. (17358.09 ticks, tree = 6.10 MB, solutions = 0)
   2033   539    infeasible                          -74.8411    28068         
   2111   544     -410.1817     1                    -74.8411    28088         
   2158   573    infeasible                          -74.8411    28182         
   2219   596     -408.2337     4                    -74.8411    28322         
   2281   590      -77.3714     1                    -74.8411    28276         
   2333   615      -77.3714     3                    -74.8411    28460         
   2434   617    infeasible                          -74.8411    28443         
   2485   619     -300.4642     2                    -74.8411    28444         
   2564   697    -2141.3329     4                    -74.8411    28707         
   2677   834      -74.8411     1                    -74.8411    29479         
Elapsed time = 41.89 sec. (27030.03 ticks, tree = 8.55 MB, solutions = 0)
   2738   834      -74.8411     1                    -74.8411    29482         
   2793   825    infeasible                          -74.8411    29504         
   2841   807     -302.9954     1                    -74.8411    29401         
   2885   880    infeasible                          -74.8411    29840         
   2939   882    infeasible                          -74.8411    29841         
   2980   895     -515.2413     3                    -74.8411    29941         
   3013   906    infeasible                          -74.8411    30056         
   3055   891      -78.2345     1                    -74.8411    29958         
   3086   900     -397.3931     1                    -74.8411    30011         
   3124   906    infeasible                          -74.8411    30061         
Elapsed time = 53.83 sec. (36820.28 ticks, tree = 12.15 MB, solutions = 0)
   3154   906    -1751.4520     1                    -74.8411    30040         
   3199   919      -75.1211     2                    -74.8411    30189         
   3237   917     -147.6223     2                    -74.8411    30158         
   3272   914     -397.3931     1                    -74.8411    30120         
   3308   915     -302.9954     1                    -74.8411    30165         
   3348   916     -302.9954     1                    -74.8411    30152         
   3379   918    infeasible                          -74.8411    30214         
   3412   925    infeasible                          -74.8411    30322         
   3441   921    -1751.4520     1                    -74.8411    30262         
   3475   918    infeasible                          -74.8411    30261         
Elapsed time = 66.97 sec. (46805.65 ticks, tree = 11.82 MB, solutions = 0)
   3514   943    infeasible                          -74.8411    30434         
   3531   947     -397.3931     2                    -74.8411    30463         
   3564   944    infeasible                          -74.8411    30442         
   3598   939     -302.9954     1                    -74.8411    30371         
   3637   942    -1751.4520     1                    -74.8411    30419         
   3649   950      -78.2345     1                    -74.8411    30497         
   3686   947     -395.1540     1                    -74.8411    30454         
   3717   952     -526.5875     3                    -74.8411    30516         
   3742   975     -397.3931     1                    -74.8411    30696         
   3784   971     -147.6223     2                    -74.8411    30655         
Elapsed time = 82.38 sec. (56890.87 ticks, tree = 12.37 MB, solutions = 0)
   3804   979     -526.5875     1                    -74.8411    30754         
   3827   964     -302.9954     1                    -74.8411    30598         
   3862   981    infeasible                          -74.8411    30801         
   3883   981     -397.3931     1                    -74.8411    30795         
   3906   976     -397.3931     1                    -74.8411    30713         
   3927   975    -1751.4520     1                    -74.8411    30656         
   3948   977     -302.9954     1                    -74.8411    30730         
   3986   988     -397.3931     1                    -74.8411    30899         
   4022   981    infeasible                          -74.8411    30808         
   4048   982     -302.9954     1                    -74.8411    30809         
Elapsed time = 96.06 sec. (67109.29 ticks, tree = 12.43 MB, solutions = 0)
   4074   984    -1751.4520     1                    -74.8411    30819         
   4094   995     -397.3931     3                    -74.8411    30990         
   4118   989     -397.3931     1                    -74.8411    30906         
   4148   998     -147.6223     2                    -74.8411    31019         
   4169   992    infeasible                          -74.8411    30962         
   4198  1002      -78.2345     1                    -74.8411    31055         
   4240   999    infeasible                          -74.8411    31053         
   4260   996      -75.1211     1                    -74.8411    30999         
   4312  1031    infeasible                          -74.8411    31983         
   4338   994    -1751.4520     1                    -74.8411    31660         
Elapsed time = 111.72 sec. (77462.30 ticks, tree = 12.90 MB, solutions = 0)
   4373  1018      -74.8411     1                    -74.8411    31838         
   4404  1005     -411.6271     1                    -74.8411    31788         
   4427  1032    infeasible                          -74.8411    32012         
   4463  1016    infeasible                          -74.8411    31833         
   4488  1041      -78.2345     1                    -74.8411    32058         
   4528  1054     -411.6271     1                    -74.8411    32170         
   4555  1042      -78.2345     2                    -74.8411    32064         
   4589  1033      -78.2345     1                    -74.8411    32018         
   4611  1060     -526.5875     1                    -74.8411    32227         
   4644  1088    infeasible                          -74.8411    32387         
Elapsed time = 126.86 sec. (87461.46 ticks, tree = 13.46 MB, solutions = 0)
   4657  1060     -526.5875     1                    -74.8411    32229         
   4689  1036    infeasible                          -74.8411    32059         
   4704  1059    infeasible                          -74.8411    32231         
   4730  1051    infeasible                          -74.8411    32162         
   4748  1043     -302.9954     1                    -74.8411    32090         
   4786  1052    -1751.4520     1                    -74.8411    32164         
   4805  1064     -526.5875     1                    -74.8411    32359         
   4820  1053      -77.6523     1                    -74.8411    32172         
   4839  1064      -78.2345     1                    -74.8411    32278         
   4894  1075      -77.6523     1                    -74.8411    32319         
Elapsed time = 139.98 sec. (100449.00 ticks, tree = 13.34 MB, solutions = 0)

Cover cuts applied:  1
Implied bound cuts applied:  5
Flow cuts applied:  4
Gomory fractional cuts applied:  4

Root node processing (before b&c):
  Real time             =    8.91 sec. (4548.67 ticks)
Parallel b&c, 12 threads:
  Real time             =  131.19 sec. (96546.70 ticks)
  Sync time (average)   =    0.14 sec.
  Wait time (average)   =    0.00 sec.
                          ------------
Total (root+branch&cut) =  140.09 sec. (101095.37 ticks)


MIP - Deterministic time limit exceeded, no integer solution.
Current MIP best bound = -7.4841098801e+01 (gap is infinite)
Solution time =  140.09 sec.  Iterations = 32781  Nodes = 4897 (1136)
Deterministic time = 101095.53 ticks  (721.63 ticks/sec)

CPLEX> CPLEX Error  1217: No solution exists.
No file written.
CPLEX> gap is infinite, so writing 0
NOTE: no warmstart specified for MIP iteration, default behavior is true
NOTE: resolving with all competitive generators using storage-only solution to warmstart
Solving...

Welcome to IBM(R) ILOG(R) CPLEX(R) Interactive Optimizer 12.9.0.0
  with Simplex, Mixed Integer & Barrier Optimizers
5725-A06 5725-A29 5724-Y48 5724-Y49 5724-Y54 5724-Y55 5655-Y21
Copyright IBM Corp. 1988, 2019.  All Rights Reserved.

Type 'help' for a list of available commands.
Type 'help' followed by a command name for more
information on commands.

CPLEX> Logfile 'cplex.log' closed.
Logfile 'C:\Users\Luke\Desktop\test106\logs\tmpkx9hqdje.cplex.log' open.
CPLEX> New value for parallel optimization mode: -1
CPLEX> New value for mixed integer optimality gap tolerance: 0.01
CPLEX> New value for integrality tolerance: 1e-09
CPLEX> New value for feasibility tolerance: 0.01
CPLEX> New value for deterministic time limit in ticks: 100000
CPLEX> Problem 'C:\Users\Luke\Desktop\test106\logs\tmpu3y9soke.pyomo.lp' read.
Read time = 0.19 sec. (13.88 ticks)
CPLEX> MIP start file 'C:\Users\Luke\Desktop\test106\logs\tmpe3e_ir6c.cplex.mst' read.
CPLEX> Problem name         : C:\Users\Luke\Desktop\test106\logs\tmpu3y9soke.pyomo.lp
Objective sense      : Maximize
Variables            :   54041  [Nneg: 1,  Box: 22526,  Free: 4416,
                                 Binary: 27098]
Objective nonzeros   :    9676
Linear constraints   :  122164  [Less: 40983,  Greater: 58612,  Equal: 22569]
  Nonzeros           :  288505
  RHS nonzeros       :   66982

Variables            : Min LB: -5000.000        Max UB: 1000000.       
Objective nonzeros   : Min   : 0.07500000       Max   : 731.8583       
Linear constraints   :
  Nonzeros           : Min   : 0.07500000       Max   : 1000000.       
  RHS nonzeros       : Min   : 0.07500000       Max   : 1000000.       
CPLEX> CPXPARAM_Parallel                                -1
CPXPARAM_Simplex_Tolerances_Feasibility          0.01
CPXPARAM_DetTimeLimit                            100000
CPXPARAM_MIP_Tolerances_MIPGap                   0.01
CPXPARAM_MIP_Tolerances_Integrality              1.0000000000000001e-09
Warning:  No solution found from 1 MIP starts.
Retaining values of one MIP start for possible repair.
Tried aggregator 3 times.
MIP Presolve eliminated 88113 rows and 19689 columns.
MIP Presolve added 3376 rows and 0 columns.
MIP Presolve modified 24476 coefficients.
Aggregator did 12846 substitutions.
Reduced MIP has 24581 rows, 20950 columns, and 68870 nonzeros.
Reduced MIP has 8281 binaries, 0 generals, 0 SOSs, and 0 indicators.
Presolve time = 0.23 sec. (171.79 ticks)
Probing fixed 434 vars, tightened 2916 bounds.
Probing time = 1.61 sec. (921.94 ticks)
Tried aggregator 2 times.
MIP Presolve eliminated 967 rows and 870 columns.
MIP Presolve modified 2190 coefficients.
Aggregator did 59 substitutions.
Reduced MIP has 23555 rows, 20021 columns, and 65879 nonzeros.
Reduced MIP has 7847 binaries, 0 generals, 0 SOSs, and 0 indicators.
Presolve time = 0.11 sec. (67.03 ticks)
Probing fixed 0 vars, tightened 1 bounds.
Probing time = 0.05 sec. (19.90 ticks)
Clique table members: 6456.
MIP emphasis: balance optimality and feasibility.
MIP search method: dynamic search.
Parallel mode: opportunistic, using up to 12 threads.
Root relaxation solution time = 0.30 sec. (278.96 ticks)

        Nodes                                         Cuts/
   Node  Left     Objective  IInf  Best Integer    Best Bound    ItCnt     Gap

      0     0    51347.9650  1776                  51347.9650     6851         
      0     0    51048.5496   703                   Cuts: 731     7217         
      0     0    51007.2940   556                   Cuts: 499     7449         
      0     0    50963.9932   474                   Cuts: 300     7597         
      0     0    50962.9758   412                   Cuts: 155     7658         
      0     0    50962.9758   378                   Cuts: 118     7708         
      0     0    50962.9758   361                    Cuts: 54     7722         
      0     0    50962.9758   355                    Cuts: 34     7728         
      0     0    50962.9758   349                    Cuts: 23     7734         
Repair heuristic found nothing.
      0     7    45115.1483   332                     Cuts: 8     7793         
Elapsed time = 12.27 sec. (5563.67 ticks, tree = 0.02 MB, solutions = 0)
    127    54    48810.7309   330                  50738.2196     8790         
    330   202    36776.1710   315                  50738.2196    10832         
    593   446    33261.1153   300                  50738.2196    12134         
    934   703    18883.1351   294                  50738.2196    12993         
   1248   951    24649.2990   259                  50738.2196    13268         
   1591  1199    49877.9269   225                  50738.2196    13339         
   1969  1868    43075.5884   235                  50738.2196    13838         
   2334  1744    43576.8587   194                  50738.2196    13797         
*  2837+  542                        43576.8587    50738.2196            16.43%
   4079   297    50273.4215   288    49877.9269    50600.7090    15762    1.45%
Elapsed time = 24.73 sec. (8659.35 ticks, tree = 2.71 MB, solutions = 4)

Clique cuts applied:  16
Cover cuts applied:  8
Implied bound cuts applied:  70
Flow cuts applied:  718
Mixed integer rounding cuts applied:  190
Gomory fractional cuts applied:  61

Root node processing (before b&c):
  Real time             =   11.73 sec. (5529.34 ticks)
Parallel b&c, 12 threads:
  Real time             =   18.63 sec. (6681.28 ticks)
  Sync time (average)   =    0.48 sec.
  Wait time (average)   =    0.00 sec.
                          ------------
Total (root+branch&cut) =   30.36 sec. (12210.62 ticks)

Solution pool: 4 solutions saved.

MIP - Integer optimal, tolerance (0.01/1e-06):  Objective =  4.9877926931e+04
Current MIP best bound =  5.0373448846e+04 (gap = 495.522, 0.99%)
Solution time =   30.36 sec.  Iterations = 24548  Nodes = 4113 (582)
Deterministic time = 12210.77 ticks  (402.20 ticks/sec)

CPLEX> Incumbent solution written to file 'C:\Users\Luke\Desktop\test106\logs\tmpv28drcyt.cplex.sol'.
CPLEX> Exporting results... 
